certificates/rado_a15_c266_N42.drat
-38 -39 -42 0
-39 -41 -42 0
-19 -40 -13 -41 0
19 39 -42 0
-41 -42 0
d -39 -41 -42 0
-19 -15 0
-42 0
16 0
19 13 0
-39 0
-19 0
38 0
23 0
13 0
20 0
-12 0
-4 0
-18 0
31 0
8 0
14 0
22 0
35 0
37 0
15 0
-5 0
-17 0
-34 0
-40 0
-1 0
-9 0
-11 0
-3 0
-41 0
24 0
0
